c uprop, v00.0, 
c reading from data/prog882.c.cnf
c done reading: 0.003806
p cnf 86 294
-40 -55 0
40 55 0
-44 -45 0
44 45 0
-48 -51 0
48 51 0
-41 -54 0
41 54 0
-49 -58 0
49 58 0
-60 -63 0
60 63 0
54 -64 0
-54 64 0
37 -58 0
-37 58 0
-35 -37 58 0
-35 -37 0
35 37 -58 0
35 37 0
34 -40 -63 0
34 -37 -63 0
34 -37 -40 0
-34 40 63 0
-34 37 63 0
-34 37 40 0
-32 -34 63 0
-32 -34 40 0
-32 -34 37 0
32 34 -63 0
32 34 -40 0
32 34 -37 0
32 -37 -40 -63 0
-32 37 40 63 0
-31 44 0
-31 34 0
31 -34 -44 0
34 -44 0
-34 44 0
-30 48 0
-30 31 0
30 -31 -48 0
31 -48 0
-31 48 0
-29 54 0
-29 30 0
29 -30 -54 0
30 -54 0
-30 54 0
-28 58 0
-28 29 0
28 -29 -58 0
29 -58 0
-29 58 0
-28 -63 0
28 -63 0
-28 63 0
-40 -59 0
40 59 0
-25 -44 0
25 44 0
-22 -48 0
22 48 0
-19 -64 0
19 64 0
-17 -35 0
17 35 0
-16 -32 0
16 32 0
-15 -27 0
-15 -67 0
15 27 67 0
27 67 -68 0
-27 -67 -68 0
-27 67 68 0
27 -67 68 0
15 -69 0
-24 -69 0
-15 24 69 0
-15 24 -70 0
15 -24 -70 0
15 24 70 0
-15 -24 70 0
69 -71 0
-71 -73 0
-69 71 73 0
-69 73 -74 0
69 -73 -74 0
69 73 74 0
-69 -73 74 0
-56 71 0
-21 -56 0
21 56 -71 0
21 -71 -75 0
-21 71 -75 0
21 71 75 0
-21 -71 75 0
-46 56 0
-46 -77 0
46 -56 77 0
-56 77 -78 0
56 -77 -78 0
56 77 78 0
-56 -77 78 0
46 -52 0
-18 -52 0
18 -46 52 0
18 -46 -79 0
-18 46 -79 0
18 46 79 0
-18 -46 79 0
-42 52 0
-42 -81 0
42 -52 81 0
-52 81 -82 0
52 -81 -82 0
52 81 82 0
-52 -81 82 0
-50 73 0
27 -50 0
-27 50 -73 0
-27 -73 -83 0
27 73 -83 0
27 -73 83 0
-27 73 83 0
-21 61 -67 0
-21 -50 61 0
-50 61 -67 0
21 -61 67 0
21 50 -61 0
50 -61 67 0
21 -61 -84 0
-61 67 -84 0
50 -61 -84 0
-21 61 84 0
61 -67 84 0
-50 61 84 0
-21 -50 -67 84 0
21 50 67 -84 0
-24 65 -77 0
-61 65 -77 0
-24 -61 65 0
24 -65 77 0
61 -65 77 0
24 61 -65 0
-38 -65 77 0
24 -38 -65 0
-38 61 -65 0
38 65 -77 0
-24 38 65 0
38 -61 65 0
-24 38 -61 -77 0
24 -38 61 77 0
-18 36 -73 0
-18 36 -65 0
36 -65 -73 0
18 -36 73 0
18 -36 65 0
-36 65 73 0
-18 36 0
36 -73 0
36 -65 0
-18 -65 -73 0
-21 33 -81 0
33 -36 -81 0
-21 33 -36 0
21 -33 81 0
-33 36 81 0
21 -33 36 0
33 -81 0
-21 33 0
33 -36 0
-21 -36 -81 0
77 -85 0
33 -85 0
-33 -77 85 0
33 -77 0
-33 77 0
18 -86 0
85 -86 0
-18 -85 86 0
-18 85 0
18 -85 0
-81 -86 0
-81 86 0
81 -86 0
-14 -27 0
-14 -67 0
14 27 67 0
-13 27 67 0
-13 -27 -67 0
13 -27 67 0
13 27 -67 0
-12 14 0
-12 -24 0
12 -14 24 0
-11 -14 24 0
-11 14 -24 0
11 14 24 0
11 -14 -24 0
-10 12 0
-10 -83 0
10 -12 83 0
-9 -12 83 0
-9 12 -83 0
9 12 83 0
9 -12 -83 0
-8 10 0
-8 -84 0
8 -10 84 0
-7 -10 84 0
-7 10 -84 0
7 10 84 0
7 -10 -84 0
-6 8 0
-6 -38 0
6 -8 38 0
-5 -8 38 0
-5 8 -38 0
5 8 38 0
5 -8 -38 0
-4 6 0
4 -6 0
-6 -39 0
6 39 0
4 -43 0
-4 43 0
-4 -47 0
4 47 0
43 -53 0
-43 53 0
-43 -57 0
43 57 0
53 -62 0
-53 62 0
-26 -53 0
26 53 0
62 -66 0
-62 66 0
-23 -62 0
23 62 0
66 -72 0
-66 72 0
-20 -66 0
20 66 0
40 -76 0
27 -76 0
-27 -40 76 0
-27 -40 0
27 40 0
-44 -67 80 0
-44 -76 80 0
-67 -76 80 0
44 67 -80 0
44 76 -80 0
67 76 -80 0
-44 80 0
-67 80 0
-76 80 0
-44 -67 -76 0
3 -24 -48 0
3 -48 -80 0
3 -24 -80 0
-3 24 48 0
-3 48 80 0
-3 24 80 0
-3 48 0
-3 24 0
-3 80 0
24 48 80 0
2 -64 -83 0
2 -3 -64 0
2 -3 -83 0
-2 64 83 0
-2 3 64 0
-2 3 83 0
2 -64 0
2 -83 0
2 -3 0
-3 -64 -83 0
1 -35 -84 0
1 -2 -35 0
1 -2 -84 0
-1 35 84 0
-1 2 35 0
-1 2 84 0
1 -35 0
1 -84 0
1 -2 0
-2 -35 -84 0
-32 -38 0
-1 -32 0
-1 -38 0
1 32 38 0
